 num_bands       = 16
 num_wann        = 16

!!! Disentanglement parameters !!!
!dis_froz_min     = 7.
!dis_froz_max     = 9.
!dis_mix_ratio    = 0.5

!!! Iterations &c. !!!
 iprint                = 1
 num_iter              = 1000
 num_print_cycles      =   1
 conv_window           = 3
!conv_tol              = 1e-10
 dis_num_iter          = 100
!dis_conv_window       = 3
!dis_conv_tol          = 1e-10
restart               =  transport

!!! Post-processing options !!!
 write_proj             = .true.
 write_xyz              = .true.
 translate_home_cell    = .true.
 write_hr               = .true.
!fermi_surface_plot     = .true.
!dos                    = .false.
!dos_project            =
!dos_kmesh              = 50 50 1
!dos_energy_min         = -1.8
!dos_energy_max         = +1.5

!!! Band structure !!!
!!! needs `kpoint_path' block
!bands_plot             = .true.
 bands_num_points       = 50
!bands_plot_format      = gnuplot xmgrace
!bands_plot_project     = 1-3
!bands_plot_mode        = s-k | cut [Slater-Koster | truncate Hamiltonian]

spinors = true
boltzwann                    = true
boltz_calc_also_dos          = true
boltz_dos_energy_step        = 0.01
smr_type                     = gauss
boltz_dos_adpt_smr           = false
boltz_dos_smr_fixed_en_width = 0.03
kmesh                        = 40
boltz_mu_min                 = -2.
boltz_mu_max                 = 2.
boltz_mu_step                = 0.01
boltz_temp_min               = 100.
boltz_temp_max               = 400.
boltz_temp_step              = 5.
boltz_relax_time             = 1.


begin unit_cell_cart
Bohr
   -0.000000    5.143554    5.143554
    5.143554   -0.000000    5.143554
    5.143554    5.143554    0.000000
end unit_cell_cart

begin atoms_cart
Bohr
   1    9.00121862    3.85766513    3.85766513
   2    1.28588838    1.28588838    1.28588838
end atoms_cart

!!! BZ-Path for band structure !!!
bands_plot = T
begin kpoint_path
  G   0.00000   0.00000   0.00000    L   0.00000   0.50000   0.00000
  L   0.00000   0.50000   0.00000    W  -0.25000   0.50000   0.25000
end kpoint_path

!!!! Dummy `projections' block for guiding centres !!!
guiding_centres = T
begin projections
   1:s
   2:s
   1:s
   1:s
   1:s
   2:s
   2:s
   2:s
   1:s
   2:s
   1:s
   1:s
   1:s
   2:s
   2:s
   2:s
end projections

!!! K-Points !!!
mp_grid : 10 10 10
begin kpoints
  0.000000000000000  0.000000000000000  0.000000000000000
 -0.000000000000000  0.000000000000000  0.100000000000000
 -0.000000000000000  0.000000000000000  0.200000000000000
 -0.000000000000000 -0.000000000000000  0.300000000000000
 -0.000000000000000  0.000000000000000  0.400000000000000
  0.000000000000000  0.000000000000000  0.500000000000000
 -0.000000000000000 -0.000000000000000  0.600000000000000
 -0.000000000000000 -0.000000000000000  0.700000000000000
 -0.000000000000000  0.000000000000000  0.800000000000000
  0.000000000000000  0.000000000000000  0.900000000000000
 -0.000000000000000  0.100000000000000  0.000000000000000
 -0.000000000000000  0.100000000000000  0.100000000000000
 -0.000000000000000  0.100000000000000  0.200000000000000
 -0.000000000000000  0.100000000000000  0.300000000000000
 -0.000000000000000  0.100000000000000  0.400000000000000
 -0.000000000000000  0.100000000000000  0.500000000000000
  0.000000000000000  0.100000000000000  0.600000000000000
 -0.000000000000000  0.100000000000000  0.700000000000000
 -0.000000000000000  0.100000000000000  0.800000000000000
 -0.000000000000000  0.100000000000000  0.900000000000000
 -0.000000000000000  0.200000000000000  0.000000000000000
 -0.000000000000000  0.200000000000000  0.100000000000000
 -0.000000000000000  0.200000000000000  0.200000000000000
 -0.000000000000000  0.200000000000000  0.300000000000000
 -0.000000000000000  0.200000000000000  0.400000000000000
 -0.000000000000000  0.200000000000000  0.500000000000000
 -0.000000000000000  0.200000000000000  0.600000000000000
  0.000000000000000  0.200000000000000  0.700000000000000
 -0.000000000000000  0.200000000000000  0.800000000000000
 -0.000000000000000  0.200000000000000  0.900000000000000
  0.000000000000000  0.300000000000000 -0.000000000000000
 -0.000000000000000  0.300000000000000  0.100000000000000
 -0.000000000000000  0.300000000000000  0.200000000000000
 -0.000000000000000  0.300000000000000  0.300000000000000
 -0.000000000000000  0.300000000000000  0.400000000000000
 -0.000000000000000  0.300000000000000  0.500000000000000
 -0.000000000000000  0.300000000000000  0.600000000000000
 -0.000000000000000  0.300000000000000  0.700000000000000
  0.000000000000000  0.300000000000000  0.800000000000000
 -0.000000000000000  0.300000000000000  0.900000000000000
 -0.000000000000000  0.400000000000000  0.000000000000000
  0.000000000000000  0.400000000000000  0.100000000000000
 -0.000000000000000  0.400000000000000  0.200000000000000
 -0.000000000000000  0.400000000000000  0.300000000000000
 -0.000000000000000  0.400000000000000  0.400000000000000
 -0.000000000000000  0.400000000000000  0.500000000000000
 -0.000000000000000  0.400000000000000  0.600000000000000
 -0.000000000000000  0.400000000000000  0.700000000000000
 -0.000000000000000  0.400000000000000  0.800000000000000
  0.000000000000000  0.400000000000000  0.900000000000000
  0.000000000000000  0.500000000000000  0.000000000000000
 -0.000000000000000  0.500000000000000  0.100000000000000
 -0.000000000000000  0.500000000000000  0.200000000000000
 -0.000000000000000  0.500000000000000  0.300000000000000
 -0.000000000000000  0.500000000000000  0.400000000000000
 -0.000000000000000  0.500000000000000  0.500000000000000
 -0.000000000000000  0.500000000000000  0.600000000000000
 -0.000000000000000  0.500000000000000  0.700000000000000
 -0.000000000000000  0.500000000000000  0.800000000000000
 -0.000000000000000  0.500000000000000  0.900000000000000
  0.000000000000000  0.600000000000000 -0.000000000000000
  0.000000000000000  0.600000000000000  0.100000000000000
 -0.000000000000000  0.600000000000000  0.200000000000000
 -0.000000000000000  0.600000000000000  0.300000000000000
 -0.000000000000000  0.600000000000000  0.400000000000000
 -0.000000000000000  0.600000000000000  0.500000000000000
 -0.000000000000000  0.600000000000000  0.600000000000000
 -0.000000000000000  0.600000000000000  0.700000000000000
 -0.000000000000000  0.600000000000000  0.800000000000000
 -0.000000000000000  0.600000000000000  0.900000000000000
 -0.000000000000000  0.700000000000000 -0.000000000000000
  0.000000000000000  0.700000000000000  0.100000000000000
  0.000000000000000  0.700000000000000  0.200000000000000
 -0.000000000000000  0.700000000000000  0.300000000000000
 -0.000000000000000  0.700000000000000  0.400000000000000
 -0.000000000000000  0.700000000000000  0.500000000000000
 -0.000000000000000  0.700000000000000  0.600000000000000
 -0.000000000000000  0.700000000000000  0.700000000000000
 -0.000000000000000  0.700000000000000  0.800000000000000
 -0.000000000000000  0.700000000000000  0.900000000000000
 -0.000000000000000  0.800000000000000  0.000000000000000
 -0.000000000000000  0.800000000000000  0.100000000000000
  0.000000000000000  0.800000000000000  0.200000000000000
  0.000000000000000  0.800000000000000  0.300000000000000
 -0.000000000000000  0.800000000000000  0.400000000000000
 -0.000000000000000  0.800000000000000  0.500000000000000
 -0.000000000000000  0.800000000000000  0.600000000000000
 -0.000000000000000  0.800000000000000  0.700000000000000
 -0.000000000000000  0.800000000000000  0.800000000000000
 -0.000000000000000  0.800000000000000  0.900000000000000
 -0.000000000000000  0.900000000000000  0.000000000000000
 -0.000000000000000  0.900000000000000  0.100000000000000
 -0.000000000000000  0.900000000000000  0.200000000000000
 -0.000000000000000  0.900000000000000  0.300000000000000
  0.000000000000000  0.900000000000000  0.400000000000000
 -0.000000000000000  0.900000000000000  0.500000000000000
 -0.000000000000000  0.900000000000000  0.600000000000000
 -0.000000000000000  0.900000000000000  0.700000000000000
 -0.000000000000000  0.900000000000000  0.800000000000000
 -0.000000000000000  0.900000000000000  0.900000000000000
  0.100000000000000 -0.000000000000000 -0.000000000000000
  0.100000000000000 -0.000000000000000  0.100000000000000
  0.100000000000000 -0.000000000000000  0.200000000000000
  0.100000000000000  0.000000000000000  0.300000000000000
  0.100000000000000 -0.000000000000000  0.400000000000000
  0.100000000000000  0.000000000000000  0.500000000000000
  0.100000000000000  0.000000000000000  0.600000000000000
  0.100000000000000 -0.000000000000000  0.700000000000000
  0.100000000000000 -0.000000000000000  0.800000000000000
  0.100000000000000  0.000000000000000  0.900000000000000
  0.100000000000000  0.100000000000000  0.000000000000000
  0.100000000000000  0.100000000000000  0.100000000000000
  0.100000000000000  0.100000000000000  0.200000000000000
  0.100000000000000  0.100000000000000  0.300000000000000
  0.100000000000000  0.100000000000000  0.400000000000000
  0.100000000000000  0.100000000000000  0.500000000000000
  0.100000000000000  0.100000000000000  0.600000000000000
  0.100000000000000  0.100000000000000  0.700000000000000
  0.100000000000000  0.100000000000000  0.800000000000000
  0.100000000000000  0.100000000000000  0.900000000000000
  0.100000000000000  0.200000000000000  0.000000000000000
  0.100000000000000  0.200000000000000  0.100000000000000
  0.100000000000000  0.200000000000000  0.200000000000000
  0.100000000000000  0.200000000000000  0.300000000000000
  0.100000000000000  0.200000000000000  0.400000000000000
  0.100000000000000  0.200000000000000  0.500000000000000
  0.100000000000000  0.200000000000000  0.600000000000000
  0.100000000000000  0.200000000000000  0.700000000000000
  0.100000000000000  0.200000000000000  0.800000000000000
  0.100000000000000  0.200000000000000  0.900000000000000
  0.100000000000000  0.300000000000000  0.000000000000000
  0.100000000000000  0.300000000000000  0.100000000000000
  0.100000000000000  0.300000000000000  0.200000000000000
  0.100000000000000  0.300000000000000  0.300000000000000
  0.100000000000000  0.300000000000000  0.400000000000000
  0.100000000000000  0.300000000000000  0.500000000000000
  0.100000000000000  0.300000000000000  0.600000000000000
  0.100000000000000  0.300000000000000  0.700000000000000
  0.100000000000000  0.300000000000000  0.800000000000000
  0.100000000000000  0.300000000000000  0.900000000000000
  0.100000000000000  0.400000000000000 -0.000000000000000
  0.100000000000000  0.400000000000000  0.100000000000000
  0.100000000000000  0.400000000000000  0.200000000000000
  0.100000000000000  0.400000000000000  0.300000000000000
  0.100000000000000  0.400000000000000  0.400000000000000
  0.100000000000000  0.400000000000000  0.500000000000000
  0.100000000000000  0.400000000000000  0.600000000000000
  0.100000000000000  0.400000000000000  0.700000000000000
  0.100000000000000  0.400000000000000  0.800000000000000
  0.100000000000000  0.400000000000000  0.900000000000000
  0.100000000000000  0.500000000000000  0.000000000000000
  0.100000000000000  0.500000000000000  0.100000000000000
  0.100000000000000  0.500000000000000  0.200000000000000
  0.100000000000000  0.500000000000000  0.300000000000000
  0.100000000000000  0.500000000000000  0.400000000000000
  0.100000000000000  0.500000000000000  0.500000000000000
  0.100000000000000  0.500000000000000  0.600000000000000
  0.100000000000000  0.500000000000000  0.700000000000000
  0.100000000000000  0.500000000000000  0.800000000000000
  0.100000000000000  0.500000000000000  0.900000000000000
  0.100000000000000  0.600000000000000  0.000000000000000
  0.100000000000000  0.600000000000000  0.100000000000000
  0.100000000000000  0.600000000000000  0.200000000000000
  0.100000000000000  0.600000000000000  0.300000000000000
  0.100000000000000  0.600000000000000  0.400000000000000
  0.100000000000000  0.600000000000000  0.500000000000000
  0.100000000000000  0.600000000000000  0.600000000000000
  0.100000000000000  0.600000000000000  0.700000000000000
  0.100000000000000  0.600000000000000  0.800000000000000
  0.100000000000000  0.600000000000000  0.900000000000000
  0.100000000000000  0.700000000000000 -0.000000000000000
  0.100000000000000  0.700000000000000  0.100000000000000
  0.100000000000000  0.700000000000000  0.200000000000000
  0.100000000000000  0.700000000000000  0.300000000000000
  0.100000000000000  0.700000000000000  0.400000000000000
  0.100000000000000  0.700000000000000  0.500000000000000
  0.100000000000000  0.700000000000000  0.600000000000000
  0.100000000000000  0.700000000000000  0.700000000000000
  0.100000000000000  0.700000000000000  0.800000000000000
  0.100000000000000  0.700000000000000  0.900000000000000
  0.100000000000000  0.800000000000000 -0.000000000000000
  0.100000000000000  0.800000000000000  0.100000000000000
  0.100000000000000  0.800000000000000  0.200000000000000
  0.100000000000000  0.800000000000000  0.300000000000000
  0.100000000000000  0.800000000000000  0.400000000000000
  0.100000000000000  0.800000000000000  0.500000000000000
  0.100000000000000  0.800000000000000  0.600000000000000
  0.100000000000000  0.800000000000000  0.700000000000000
  0.100000000000000  0.800000000000000  0.800000000000000
  0.100000000000000  0.800000000000000  0.900000000000000
  0.100000000000000  0.900000000000000  0.000000000000000
  0.100000000000000  0.900000000000000  0.100000000000000
  0.100000000000000  0.900000000000000  0.200000000000000
  0.100000000000000  0.900000000000000  0.300000000000000
  0.100000000000000  0.900000000000000  0.400000000000000
  0.100000000000000  0.900000000000000  0.500000000000000
  0.100000000000000  0.900000000000000  0.600000000000000
  0.100000000000000  0.900000000000000  0.700000000000000
  0.100000000000000  0.900000000000000  0.800000000000000
  0.100000000000000  0.900000000000000  0.900000000000000
  0.200000000000000 -0.000000000000000 -0.000000000000000
  0.200000000000000 -0.000000000000000  0.100000000000000
  0.200000000000000 -0.000000000000000  0.200000000000000
  0.200000000000000 -0.000000000000000  0.300000000000000
  0.200000000000000 -0.000000000000000  0.400000000000000
  0.200000000000000 -0.000000000000000  0.500000000000000
  0.200000000000000  0.000000000000000  0.600000000000000
  0.200000000000000  0.000000000000000  0.700000000000000
  0.200000000000000 -0.000000000000000  0.800000000000000
  0.200000000000000 -0.000000000000000  0.900000000000000
  0.200000000000000  0.100000000000000 -0.000000000000000
  0.200000000000000  0.100000000000000  0.100000000000000
  0.200000000000000  0.100000000000000  0.200000000000000
  0.200000000000000  0.100000000000000  0.300000000000000
  0.200000000000000  0.100000000000000  0.400000000000000
  0.200000000000000  0.100000000000000  0.500000000000000
  0.200000000000000  0.100000000000000  0.600000000000000
  0.200000000000000  0.100000000000000  0.700000000000000
  0.200000000000000  0.100000000000000  0.800000000000000
  0.200000000000000  0.100000000000000  0.900000000000000
  0.200000000000000  0.200000000000000  0.000000000000000
  0.200000000000000  0.200000000000000  0.100000000000000
  0.200000000000000  0.200000000000000  0.200000000000000
  0.200000000000000  0.200000000000000  0.300000000000000
  0.200000000000000  0.200000000000000  0.400000000000000
  0.200000000000000  0.200000000000000  0.500000000000000
  0.200000000000000  0.200000000000000  0.600000000000000
  0.200000000000000  0.200000000000000  0.700000000000000
  0.200000000000000  0.200000000000000  0.800000000000000
  0.200000000000000  0.200000000000000  0.900000000000000
  0.200000000000000  0.300000000000000  0.000000000000000
  0.200000000000000  0.300000000000000  0.100000000000000
  0.200000000000000  0.300000000000000  0.200000000000000
  0.200000000000000  0.300000000000000  0.300000000000000
  0.200000000000000  0.300000000000000  0.400000000000000
  0.200000000000000  0.300000000000000  0.500000000000000
  0.200000000000000  0.300000000000000  0.600000000000000
  0.200000000000000  0.300000000000000  0.700000000000000
  0.200000000000000  0.300000000000000  0.800000000000000
  0.200000000000000  0.300000000000000  0.900000000000000
  0.200000000000000  0.400000000000000  0.000000000000000
  0.200000000000000  0.400000000000000  0.100000000000000
  0.200000000000000  0.400000000000000  0.200000000000000
  0.200000000000000  0.400000000000000  0.300000000000000
  0.200000000000000  0.400000000000000  0.400000000000000
  0.200000000000000  0.400000000000000  0.500000000000000
  0.200000000000000  0.400000000000000  0.600000000000000
  0.200000000000000  0.400000000000000  0.700000000000000
  0.200000000000000  0.400000000000000  0.800000000000000
  0.200000000000000  0.400000000000000  0.900000000000000
  0.200000000000000  0.500000000000000 -0.000000000000000
  0.200000000000000  0.500000000000000  0.100000000000000
  0.200000000000000  0.500000000000000  0.200000000000000
  0.200000000000000  0.500000000000000  0.300000000000000
  0.200000000000000  0.500000000000000  0.400000000000000
  0.200000000000000  0.500000000000000  0.500000000000000
  0.200000000000000  0.500000000000000  0.600000000000000
  0.200000000000000  0.500000000000000  0.700000000000000
  0.200000000000000  0.500000000000000  0.800000000000000
  0.200000000000000  0.500000000000000  0.900000000000000
  0.200000000000000  0.600000000000000  0.000000000000000
  0.200000000000000  0.600000000000000  0.100000000000000
  0.200000000000000  0.600000000000000  0.200000000000000
  0.200000000000000  0.600000000000000  0.300000000000000
  0.200000000000000  0.600000000000000  0.400000000000000
  0.200000000000000  0.600000000000000  0.500000000000000
  0.200000000000000  0.600000000000000  0.600000000000000
  0.200000000000000  0.600000000000000  0.700000000000000
  0.200000000000000  0.600000000000000  0.800000000000000
  0.200000000000000  0.600000000000000  0.900000000000000
  0.200000000000000  0.700000000000000  0.000000000000000
  0.200000000000000  0.700000000000000  0.100000000000000
  0.200000000000000  0.700000000000000  0.200000000000000
  0.200000000000000  0.700000000000000  0.300000000000000
  0.200000000000000  0.700000000000000  0.400000000000000
  0.200000000000000  0.700000000000000  0.500000000000000
  0.200000000000000  0.700000000000000  0.600000000000000
  0.200000000000000  0.700000000000000  0.700000000000000
  0.200000000000000  0.700000000000000  0.800000000000000
  0.200000000000000  0.700000000000000  0.900000000000000
  0.200000000000000  0.800000000000000 -0.000000000000000
  0.200000000000000  0.800000000000000  0.100000000000000
  0.200000000000000  0.800000000000000  0.200000000000000
  0.200000000000000  0.800000000000000  0.300000000000000
  0.200000000000000  0.800000000000000  0.400000000000000
  0.200000000000000  0.800000000000000  0.500000000000000
  0.200000000000000  0.800000000000000  0.600000000000000
  0.200000000000000  0.800000000000000  0.700000000000000
  0.200000000000000  0.800000000000000  0.800000000000000
  0.200000000000000  0.800000000000000  0.900000000000000
  0.200000000000000  0.900000000000000 -0.000000000000000
  0.200000000000000  0.900000000000000  0.100000000000000
  0.200000000000000  0.900000000000000  0.200000000000000
  0.200000000000000  0.900000000000000  0.300000000000000
  0.200000000000000  0.900000000000000  0.400000000000000
  0.200000000000000  0.900000000000000  0.500000000000000
  0.200000000000000  0.900000000000000  0.600000000000000
  0.200000000000000  0.900000000000000  0.700000000000000
  0.200000000000000  0.900000000000000  0.800000000000000
  0.200000000000000  0.900000000000000  0.900000000000000
  0.300000000000000  0.000000000000000  0.000000000000000
  0.300000000000000 -0.000000000000000  0.100000000000000
  0.300000000000000 -0.000000000000000  0.200000000000000
  0.300000000000000 -0.000000000000000  0.300000000000000
  0.300000000000000 -0.000000000000000  0.400000000000000
  0.300000000000000 -0.000000000000000  0.500000000000000
  0.300000000000000 -0.000000000000000  0.600000000000000
  0.300000000000000 -0.000000000000000  0.700000000000000
  0.300000000000000  0.000000000000000  0.800000000000000
  0.300000000000000 -0.000000000000000  0.900000000000000
  0.300000000000000  0.100000000000000 -0.000000000000000
  0.300000000000000  0.100000000000000  0.100000000000000
  0.300000000000000  0.100000000000000  0.200000000000000
  0.300000000000000  0.100000000000000  0.300000000000000
  0.300000000000000  0.100000000000000  0.400000000000000
  0.300000000000000  0.100000000000000  0.500000000000000
  0.300000000000000  0.100000000000000  0.600000000000000
  0.300000000000000  0.100000000000000  0.700000000000000
  0.300000000000000  0.100000000000000  0.800000000000000
  0.300000000000000  0.100000000000000  0.900000000000000
  0.300000000000000  0.200000000000000 -0.000000000000000
  0.300000000000000  0.200000000000000  0.100000000000000
  0.300000000000000  0.200000000000000  0.200000000000000
  0.300000000000000  0.200000000000000  0.300000000000000
  0.300000000000000  0.200000000000000  0.400000000000000
  0.300000000000000  0.200000000000000  0.500000000000000
  0.300000000000000  0.200000000000000  0.600000000000000
  0.300000000000000  0.200000000000000  0.700000000000000
  0.300000000000000  0.200000000000000  0.800000000000000
  0.300000000000000  0.200000000000000  0.900000000000000
  0.300000000000000  0.300000000000000  0.000000000000000
  0.300000000000000  0.300000000000000  0.100000000000000
  0.300000000000000  0.300000000000000  0.200000000000000
  0.300000000000000  0.300000000000000  0.300000000000000
  0.300000000000000  0.300000000000000  0.400000000000000
  0.300000000000000  0.300000000000000  0.500000000000000
  0.300000000000000  0.300000000000000  0.600000000000000
  0.300000000000000  0.300000000000000  0.700000000000000
  0.300000000000000  0.300000000000000  0.800000000000000
  0.300000000000000  0.300000000000000  0.900000000000000
  0.300000000000000  0.400000000000000  0.000000000000000
  0.300000000000000  0.400000000000000  0.100000000000000
  0.300000000000000  0.400000000000000  0.200000000000000
  0.300000000000000  0.400000000000000  0.300000000000000
  0.300000000000000  0.400000000000000  0.400000000000000
  0.300000000000000  0.400000000000000  0.500000000000000
  0.300000000000000  0.400000000000000  0.600000000000000
  0.300000000000000  0.400000000000000  0.700000000000000
  0.300000000000000  0.400000000000000  0.800000000000000
  0.300000000000000  0.400000000000000  0.900000000000000
  0.300000000000000  0.500000000000000  0.000000000000000
  0.300000000000000  0.500000000000000  0.100000000000000
  0.300000000000000  0.500000000000000  0.200000000000000
  0.300000000000000  0.500000000000000  0.300000000000000
  0.300000000000000  0.500000000000000  0.400000000000000
  0.300000000000000  0.500000000000000  0.500000000000000
  0.300000000000000  0.500000000000000  0.600000000000000
  0.300000000000000  0.500000000000000  0.700000000000000
  0.300000000000000  0.500000000000000  0.800000000000000
  0.300000000000000  0.500000000000000  0.900000000000000
  0.300000000000000  0.600000000000000 -0.000000000000000
  0.300000000000000  0.600000000000000  0.100000000000000
  0.300000000000000  0.600000000000000  0.200000000000000
  0.300000000000000  0.600000000000000  0.300000000000000
  0.300000000000000  0.600000000000000  0.400000000000000
  0.300000000000000  0.600000000000000  0.500000000000000
  0.300000000000000  0.600000000000000  0.600000000000000
  0.300000000000000  0.600000000000000  0.700000000000000
  0.300000000000000  0.600000000000000  0.800000000000000
  0.300000000000000  0.600000000000000  0.900000000000000
  0.300000000000000  0.700000000000000  0.000000000000000
  0.300000000000000  0.700000000000000  0.100000000000000
  0.300000000000000  0.700000000000000  0.200000000000000
  0.300000000000000  0.700000000000000  0.300000000000000
  0.300000000000000  0.700000000000000  0.400000000000000
  0.300000000000000  0.700000000000000  0.500000000000000
  0.300000000000000  0.700000000000000  0.600000000000000
  0.300000000000000  0.700000000000000  0.700000000000000
  0.300000000000000  0.700000000000000  0.800000000000000
  0.300000000000000  0.700000000000000  0.900000000000000
  0.300000000000000  0.800000000000000  0.000000000000000
  0.300000000000000  0.800000000000000  0.100000000000000
  0.300000000000000  0.800000000000000  0.200000000000000
  0.300000000000000  0.800000000000000  0.300000000000000
  0.300000000000000  0.800000000000000  0.400000000000000
  0.300000000000000  0.800000000000000  0.500000000000000
  0.300000000000000  0.800000000000000  0.600000000000000
  0.300000000000000  0.800000000000000  0.700000000000000
  0.300000000000000  0.800000000000000  0.800000000000000
  0.300000000000000  0.800000000000000  0.900000000000000
  0.300000000000000  0.900000000000000 -0.000000000000000
  0.300000000000000  0.900000000000000  0.100000000000000
  0.300000000000000  0.900000000000000  0.200000000000000
  0.300000000000000  0.900000000000000  0.300000000000000
  0.300000000000000  0.900000000000000  0.400000000000000
  0.300000000000000  0.900000000000000  0.500000000000000
  0.300000000000000  0.900000000000000  0.600000000000000
  0.300000000000000  0.900000000000000  0.700000000000000
  0.300000000000000  0.900000000000000  0.800000000000000
  0.300000000000000  0.900000000000000  0.900000000000000
  0.400000000000000 -0.000000000000000 -0.000000000000000
  0.400000000000000  0.000000000000000  0.100000000000000
  0.400000000000000 -0.000000000000000  0.200000000000000
  0.400000000000000 -0.000000000000000  0.300000000000000
  0.400000000000000 -0.000000000000000  0.400000000000000
  0.400000000000000 -0.000000000000000  0.500000000000000
  0.400000000000000 -0.000000000000000  0.600000000000000
  0.400000000000000 -0.000000000000000  0.700000000000000
  0.400000000000000 -0.000000000000000  0.800000000000000
  0.400000000000000  0.000000000000000  0.900000000000000
  0.400000000000000  0.100000000000000  0.000000000000000
  0.400000000000000  0.100000000000000  0.100000000000000
  0.400000000000000  0.100000000000000  0.200000000000000
  0.400000000000000  0.100000000000000  0.300000000000000
  0.400000000000000  0.100000000000000  0.400000000000000
  0.400000000000000  0.100000000000000  0.500000000000000
  0.400000000000000  0.100000000000000  0.600000000000000
  0.400000000000000  0.100000000000000  0.700000000000000
  0.400000000000000  0.100000000000000  0.800000000000000
  0.400000000000000  0.100000000000000  0.900000000000000
  0.400000000000000  0.200000000000000 -0.000000000000000
  0.400000000000000  0.200000000000000  0.100000000000000
  0.400000000000000  0.200000000000000  0.200000000000000
  0.400000000000000  0.200000000000000  0.300000000000000
  0.400000000000000  0.200000000000000  0.400000000000000
  0.400000000000000  0.200000000000000  0.500000000000000
  0.400000000000000  0.200000000000000  0.600000000000000
  0.400000000000000  0.200000000000000  0.700000000000000
  0.400000000000000  0.200000000000000  0.800000000000000
  0.400000000000000  0.200000000000000  0.900000000000000
  0.400000000000000  0.300000000000000 -0.000000000000000
  0.400000000000000  0.300000000000000  0.100000000000000
  0.400000000000000  0.300000000000000  0.200000000000000
  0.400000000000000  0.300000000000000  0.300000000000000
  0.400000000000000  0.300000000000000  0.400000000000000
  0.400000000000000  0.300000000000000  0.500000000000000
  0.400000000000000  0.300000000000000  0.600000000000000
  0.400000000000000  0.300000000000000  0.700000000000000
  0.400000000000000  0.300000000000000  0.800000000000000
  0.400000000000000  0.300000000000000  0.900000000000000
  0.400000000000000  0.400000000000000  0.000000000000000
  0.400000000000000  0.400000000000000  0.100000000000000
  0.400000000000000  0.400000000000000  0.200000000000000
  0.400000000000000  0.400000000000000  0.300000000000000
  0.400000000000000  0.400000000000000  0.400000000000000
  0.400000000000000  0.400000000000000  0.500000000000000
  0.400000000000000  0.400000000000000  0.600000000000000
  0.400000000000000  0.400000000000000  0.700000000000000
  0.400000000000000  0.400000000000000  0.800000000000000
  0.400000000000000  0.400000000000000  0.900000000000000
  0.400000000000000  0.500000000000000  0.000000000000000
  0.400000000000000  0.500000000000000  0.100000000000000
  0.400000000000000  0.500000000000000  0.200000000000000
  0.400000000000000  0.500000000000000  0.300000000000000
  0.400000000000000  0.500000000000000  0.400000000000000
  0.400000000000000  0.500000000000000  0.500000000000000
  0.400000000000000  0.500000000000000  0.600000000000000
  0.400000000000000  0.500000000000000  0.700000000000000
  0.400000000000000  0.500000000000000  0.800000000000000
  0.400000000000000  0.500000000000000  0.900000000000000
  0.400000000000000  0.600000000000000  0.000000000000000
  0.400000000000000  0.600000000000000  0.100000000000000
  0.400000000000000  0.600000000000000  0.200000000000000
  0.400000000000000  0.600000000000000  0.300000000000000
  0.400000000000000  0.600000000000000  0.400000000000000
  0.400000000000000  0.600000000000000  0.500000000000000
  0.400000000000000  0.600000000000000  0.600000000000000
  0.400000000000000  0.600000000000000  0.700000000000000
  0.400000000000000  0.600000000000000  0.800000000000000
  0.400000000000000  0.600000000000000  0.900000000000000
  0.400000000000000  0.700000000000000 -0.000000000000000
  0.400000000000000  0.700000000000000  0.100000000000000
  0.400000000000000  0.700000000000000  0.200000000000000
  0.400000000000000  0.700000000000000  0.300000000000000
  0.400000000000000  0.700000000000000  0.400000000000000
  0.400000000000000  0.700000000000000  0.500000000000000